
Gurobi 11.0.0 (linux64) logging started Tue Sep 17 03:35:53 2024

Set parameter LogFile to value "gurobi.log"
Set parameter InfUnbdInfo to value 1
Gurobi Optimizer version 11.0.0 build v11.0.0rc2 (linux64 - "Ubuntu 22.04.4 LTS")

CPU model: AMD EPYC 7V13 64-Core Processor, instruction set [SSE2|AVX|AVX2]
Thread count: 128 physical cores, 128 logical processors, using up to 32 threads

Optimize a model with 25 rows, 160 columns and 61 nonzeros
Model fingerprint: 0x53a4cb08
Model has 151 quadratic constraints
Model has 1 general constraint
Variable types: 42 continuous, 118 integer (0 binary)
Coefficient statistics:
  Matrix range     [1e+00, 6e+04]
  QMatrix range    [1e+00, 6e+04]
  QLMatrix range   [1e+00, 6e+04]
  Objective range  [1e+00, 1e+00]
  Bounds range     [1e+00, 4e+09]
  RHS range        [1e+00, 1e+00]
  QRHS range       [3e+01, 2e+06]
Warning: Model contains large bounds
         Consider reformulating model or setting NumericFocus parameter
         to avoid numerical issues.
Using branch priorities (all 0).
Presolve added 36 rows and 0 columns
Presolve removed 0 rows and 23 columns
Presolve time: 0.00s
Presolved: 473 rows, 183 columns, 1229 nonzeros
Presolved model has 4 SOS constraint(s)
Presolved model has 82 bilinear constraint(s)
Warning: Model contains variables with very large bounds participating
         in product terms.
         Presolve was not able to compute smaller bounds for these variables.
         Consider bounding these variables or reformulating the model.


Solving non-convex MIQCP

Variable types: 61 continuous, 122 integer (43 binary)

Root relaxation: objective 9.382000e+04, 55 iterations, 0.00 seconds (0.00 work units)

    Nodes    |    Current Node    |     Objective Bounds      |     Work
 Expl Unexpl |  Obj  Depth IntInf | Incumbent    BestBd   Gap | It/Node Time

     0     0 93820.0000    0    2          - 93820.0000      -     -    0s
H    0     0                    94314.000000 93820.0000  0.52%     -    0s
     0     0 93820.0000    0   32 94314.0000 93820.0000  0.52%     -    0s
     0     0 93820.0000    0    2 94314.0000 93820.0000  0.52%     -    0s
     0     0 93820.0000    0   28 94314.0000 93820.0000  0.52%     -    0s
     0     0 93821.4333    0   40 94314.0000 93821.4333  0.52%     -    0s
     0     0 93825.7398    0   40 94314.0000 93825.7398  0.52%     -    0s
     0     0 93831.0312    0   44 94314.0000 93831.0312  0.51%     -    0s
     0     0 93832.0000    0   28 94314.0000 93832.0000  0.51%     -    0s
     0     0 93832.0000    0    4 94314.0000 93832.0000  0.51%     -    0s
     0     0 93832.0000    0   28 94314.0000 93832.0000  0.51%     -    0s
     0     0 93832.0000    0    2 94314.0000 93832.0000  0.51%     -    0s
     0     0 93832.0000    0   20 94314.0000 93832.0000  0.51%     -    0s
     0     0 93832.0000    0   26 94314.0000 93832.0000  0.51%     -    0s
     0     0 93832.0000    0   26 94314.0000 93832.0000  0.51%     -    0s
     0     0 93832.0000    0   30 94314.0000 93832.0000  0.51%     -    0s
     0     0 93832.0000    0   34 94314.0000 93832.0000  0.51%     -    0s
     0     0 93862.8221    0   36 94314.0000 93862.8221  0.48%     -    0s
     0     2 93862.8221    0   14 94314.0000 93862.8221  0.48%     -    0s

Cutting planes:
  Implied bound: 2
  MIR: 5
  RLT: 2

Explored 17 nodes (366 simplex iterations) in 0.30 seconds (0.02 work units)
Thread count was 32 (of 128 available processors)

Solution count 2: 94314 94314 

Optimal solution found (tolerance 1.00e-10)
Best objective 9.431400000000e+04, best bound 9.431400000000e+04, gap 0.0000%
